NAME : eil76
COMMENT : 76-city
TYPE : TOUR
DIMENSION : 76
TOUR_LENGTH : 551
ERROR : 0.0241636
TOUR_SECTION
38
8
31
43
2
15
62
32
72
61
27
73
1
29
47
28
44
26
51
33
45
66
25
75
74
3
67
5
50
16
39
11
71
57
9
37
64
10
65
58
13
52
6
7
34
18
53
12
56
14
4
36
19
69
59
70
35
46
20
68
60
21
63
41
40
42
0
55
22
48
23
17
49
24
54
30
-1
EOF
